benchmark/results/graph__10-1000-0.10-03_1/graph__10-1000-0.10-03_1_QuintonOs_Benders_aux.lp
\ This file has been generated by DOcplex
\ ENCODING=ISO-8859-1
\Problem name: Quinton Bounded Benders_auxiliary_sub

Minimize
 obj: 0.001566293566 pi_nr_a0 + 0.001807099775 pi_nr_a1
      + 0.000998456922 pi_nr_a2 + 0.001638176720 pi_nr_a3
      + 0.002573213220 pi_nr_a4 + 0.001397918488 pi_nr_a5
      + 0.001143552235 pi_nr_a6 + 0.001338706587 pi_nr_a7
      + 0.000956099665 pi_nr_a8 + 0.000973096973 pi_nr_a9 + pi_p_a1_a3
      + pi_p_a4_a4 + pi_p_a1_a6 + pi_p_a0_a6 + pi_p_a4_a5 + pi_p_a0_a9
      + 2491.737792968750 pi_d_a0_a1_proc_2
      + 2532.987792968750 pi_d_a0_a1_proc_1 + 101.737792968750 pi_d_a0_a1_proc_0
      + 2489.261718750000 pi_d_a1_a0_proc_2
      + 2530.511718750000 pi_d_a1_a0_proc_1 + 99.261718750000 pi_d_a1_a0_proc_0
      + 1248.769042968750 pi_d_a0_a2_proc_2
      + 2546.269042968750 pi_d_a0_a2_proc_1
      + 1363.769042968750 pi_d_a0_a2_proc_0
      + 1224.730468750000 pi_d_a2_a0_proc_2
      + 2522.230468750000 pi_d_a2_a0_proc_1
      + 1339.730468750000 pi_d_a2_a0_proc_0
      + 1306.479980468750 pi_d_a0_a3_proc_2
      + 1305.229980468750 pi_d_a0_a3_proc_0
      + 1283.269531250000 pi_d_a3_a0_proc_2
      + 1282.019531250000 pi_d_a3_a0_proc_0
      + 2360.088867187500 pi_d_a0_a4_proc_2
      + 1435.088867187500 pi_d_a0_a4_proc_1
      + 1363.838867187500 pi_d_a0_a4_proc_0
      + 2335.910644531250 pi_d_a4_a0_proc_2
      + 1410.910644531250 pi_d_a4_a0_proc_1
      + 1339.660644531250 pi_d_a4_a0_proc_0
      + 1266.920410156250 pi_d_a0_a5_proc_1
      + 1242.829101562500 pi_d_a5_a0_proc_1
      + 2510.464355468750 pi_d_a0_a6_proc_2
      + 2495.464355468750 pi_d_a0_a6_proc_1 + 120.464355468750 pi_d_a0_a6_proc_0
      + 2508.035156250000 pi_d_a6_a0_proc_2
      + 2493.035156250000 pi_d_a6_a0_proc_1 + 118.035156250000 pi_d_a6_a0_proc_0
      + 1256.997558593750 pi_d_a0_a7_proc_2
      + 2494.497558593750 pi_d_a0_a7_proc_1
      + 1345.747558593750 pi_d_a0_a7_proc_0
      + 1274.001953125000 pi_d_a7_a0_proc_2
      + 2511.501953125000 pi_d_a7_a0_proc_1
      + 1362.751953125000 pi_d_a7_a0_proc_0
      + 1356.725585937500 pi_d_a0_a8_proc_1
      + 1277.975585937500 pi_d_a0_a8_proc_0
      + 1334.273925781250 pi_d_a8_a0_proc_1
      + 1255.523925781250 pi_d_a8_a0_proc_0
      + 1480.884277343750 pi_d_a0_a9_proc_2
      + 2309.009277343750 pi_d_a0_a9_proc_1
      + 1456.365234375000 pi_d_a9_a0_proc_2
      + 2284.490234375000 pi_d_a9_a0_proc_1
      + 1277.440917968750 pi_d_a1_a2_proc_2
      + 2568.690917968750 pi_d_a1_a2_proc_1
      + 1308.690917968750 pi_d_a1_a2_proc_0
      + 1256.058593750000 pi_d_a2_a1_proc_2
      + 2547.308593750000 pi_d_a2_a1_proc_1
      + 1287.308593750000 pi_d_a2_a1_proc_0
      + 1336.981933593750 pi_d_a1_a3_proc_2
      + 1251.981933593750 pi_d_a1_a3_proc_0
      + 1312.767578125000 pi_d_a3_a1_proc_2
      + 1227.767578125000 pi_d_a3_a1_proc_0
      + 2390.436523437500 pi_d_a1_a4_proc_2
      + 1459.186523437500 pi_d_a1_a4_proc_1
      + 1310.436523437500 pi_d_a1_a4_proc_0
      + 2365.562988281250 pi_d_a4_a1_proc_2
      + 1434.312988281250 pi_d_a4_a1_proc_1
      + 1285.562988281250 pi_d_a4_a1_proc_0
      + 1291.071777343750 pi_d_a1_a5_proc_1
      + 1266.177734375000 pi_d_a5_a1_proc_1
      + 2540.347167968750 pi_d_a1_a6_proc_2
      + 2519.097167968750 pi_d_a1_a6_proc_1 + 66.597167968750 pi_d_a1_a6_proc_0
      + 2538.152343750000 pi_d_a6_a1_proc_2
      + 2516.902343750000 pi_d_a6_a1_proc_1 + 64.402343750000 pi_d_a6_a1_proc_0
      + 1307.987792968750 pi_d_a1_a7_proc_2
      + 2539.237792968750 pi_d_a1_a7_proc_1
      + 1312.987792968750 pi_d_a1_a7_proc_0
      + 1283.011718750000 pi_d_a7_a1_proc_2
      + 2514.261718750000 pi_d_a7_a1_proc_1
      + 1288.011718750000 pi_d_a7_a1_proc_0
      + 1380.774414062500 pi_d_a1_a8_proc_1
      + 1224.524414062500 pi_d_a1_a8_proc_0
      + 1357.725097656250 pi_d_a8_a1_proc_1
      + 1201.475097656250 pi_d_a8_a1_proc_0
      + 1511.095214843750 pi_d_a1_a9_proc_2
      + 2332.970214843750 pi_d_a1_a9_proc_1
      + 1486.154296875000 pi_d_a9_a1_proc_2
      + 2308.029296875000 pi_d_a9_a1_proc_1 + 72.274902343750 pi_d_a2_a3_proc_2
      + 2492.274902343750 pi_d_a2_a3_proc_0 + 69.974609375000 pi_d_a3_a2_proc_2
      + 2489.974609375000 pi_d_a3_a2_proc_0
      + 1132.246093750000 pi_d_a2_a4_proc_2
      + 1457.246093750000 pi_d_a2_a4_proc_1
      + 2557.246093750000 pi_d_a2_a4_proc_0
      + 1116.253417968750 pi_d_a4_a2_proc_2
      + 1441.253417968750 pi_d_a4_a2_proc_1
      + 2541.253417968750 pi_d_a4_a2_proc_0
      + 1293.618652343750 pi_d_a2_a5_proc_1
      + 1268.630859375000 pi_d_a5_a2_proc_1
      + 1297.929199218750 pi_d_a2_a6_proc_2
      + 2532.929199218750 pi_d_a2_a6_proc_1
      + 1329.179199218750 pi_d_a2_a6_proc_0
      + 1273.070312500000 pi_d_a6_a2_proc_2
      + 2508.070312500000 pi_d_a6_a2_proc_1
      + 1304.320312500000 pi_d_a6_a2_proc_0 + 42.612792968750 pi_d_a2_a7_proc_2
      + 2530.112792968750 pi_d_a2_a7_proc_1
      + 2552.612792968750 pi_d_a2_a7_proc_0 + 40.886718750000 pi_d_a7_a2_proc_2
      + 2528.386718750000 pi_d_a7_a2_proc_1
      + 2550.886718750000 pi_d_a7_a2_proc_0
      + 1384.237304687500 pi_d_a2_a8_proc_1
      + 2476.737304687500 pi_d_a2_a8_proc_0
      + 1359.262207031250 pi_d_a8_a2_proc_1
      + 2451.762207031250 pi_d_a8_a2_proc_0 + 247.606933593750 pi_d_a2_a9_proc_2
      + 2325.731933593750 pi_d_a2_a9_proc_1 + 242.142578125000 pi_d_a9_a2_proc_2
      + 2320.267578125000 pi_d_a9_a2_proc_1
      + 1191.743652343750 pi_d_a3_a4_proc_2
      + 2500.493652343750 pi_d_a3_a4_proc_0
      + 1173.005859375000 pi_d_a4_a3_proc_2
      + 2481.755859375000 pi_d_a4_a3_proc_0
      + 1355.890136718750 pi_d_a3_a6_proc_2
      + 1270.890136718750 pi_d_a3_a6_proc_0
      + 1331.359375000000 pi_d_a6_a3_proc_2
      + 1246.359375000000 pi_d_a6_a3_proc_0 + 100.104980468750 pi_d_a3_a7_proc_2
      + 2493.854980468750 pi_d_a3_a7_proc_0 + 99.644531250000 pi_d_a7_a3_proc_2
      + 2493.394531250000 pi_d_a7_a3_proc_0
      + 2418.618652343750 pi_d_a3_a8_proc_0
      + 2393.630859375000 pi_d_a8_a3_proc_0 + 304.924804687500 pi_d_a3_a9_proc_2
      + 301.074707031250 pi_d_a9_a3_proc_2 + 171.950683593750 pi_d_a4_a5_proc_1
      + 167.798828125000 pi_d_a5_a4_proc_1 + 2409.170898437500 pi_d_a4_a6_proc_2
      + 1421.670898437500 pi_d_a4_a6_proc_1
      + 1329.170898437500 pi_d_a4_a6_proc_0
      + 2384.328613281250 pi_d_a6_a4_proc_2
      + 1396.828613281250 pi_d_a6_a4_proc_1
      + 1304.328613281250 pi_d_a6_a4_proc_0
      + 1146.652343750000 pi_d_a4_a7_proc_2
      + 1411.652343750000 pi_d_a4_a7_proc_1
      + 2545.402343750000 pi_d_a4_a7_proc_0
      + 1159.347167968750 pi_d_a7_a4_proc_2
      + 1424.347167968750 pi_d_a7_a4_proc_1
      + 2558.097167968750 pi_d_a7_a4_proc_0 + 263.413574218750 pi_d_a4_a8_proc_1
      + 2467.163574218750 pi_d_a4_a8_proc_0 + 257.585937500000 pi_d_a8_a4_proc_1
      + 2461.335937500000 pi_d_a8_a4_proc_0
      + 1368.532714843750 pi_d_a4_a9_proc_2
      + 1224.157714843750 pi_d_a4_a9_proc_1
      + 1343.716796875000 pi_d_a9_a4_proc_2
      + 1199.341796875000 pi_d_a9_a4_proc_1
      + 1253.587402343750 pi_d_a5_a6_proc_1
      + 1228.662109375000 pi_d_a6_a5_proc_1
      + 1262.281738281250 pi_d_a5_a7_proc_1
      + 1237.467773437500 pi_d_a7_a5_proc_1 + 92.795410156250 pi_d_a5_a8_proc_1
      + 91.954101562500 pi_d_a8_a5_proc_1 + 1055.704589843750 pi_d_a5_a9_proc_1
      + 1031.544921875000 pi_d_a9_a5_proc_1
      + 1326.689941406250 pi_d_a6_a7_proc_2
      + 2501.689941406250 pi_d_a6_a7_proc_1
      + 1331.689941406250 pi_d_a6_a7_proc_0
      + 1301.809570312500 pi_d_a7_a6_proc_2
      + 2476.809570312500 pi_d_a7_a6_proc_1
      + 1306.809570312500 pi_d_a7_a6_proc_0
      + 1320.666992187500 pi_d_a6_a8_proc_1
      + 1220.666992187500 pi_d_a6_a8_proc_0
      + 1342.832519531250 pi_d_a8_a6_proc_1
      + 1242.832519531250 pi_d_a8_a6_proc_0
      + 1506.988769531250 pi_d_a6_a9_proc_2
      + 2272.613769531250 pi_d_a6_a9_proc_1
      + 1527.760742187500 pi_d_a9_a6_proc_2
      + 2293.385742187500 pi_d_a9_a6_proc_1
      + 1352.572265625000 pi_d_a7_a8_proc_1
      + 2478.822265625000 pi_d_a7_a8_proc_0
      + 1328.427246093750 pi_d_a8_a7_proc_1
      + 2454.677246093750 pi_d_a8_a7_proc_0 + 275.251464843750 pi_d_a7_a9_proc_2
      + 2293.376464843750 pi_d_a7_a9_proc_1 + 271.998046875000 pi_d_a9_a7_proc_2
      + 2290.123046875000 pi_d_a9_a7_proc_1
      + 1146.446777343750 pi_d_a8_a9_proc_1
      + 1122.052734375000 pi_d_a9_a8_proc_1 + 0.939941406250 pi_y2_a0_proc_0
      + 0.020507812500 pi_y2_a0_proc_1 + 0.039062500000 pi_y2_a0_proc_2
      + 0.981933593750 pi_y2_a1_proc_0 + 0.001953125000 pi_y2_a1_proc_1
      + 0.015625000000 pi_y2_a1_proc_2 + 0.004394531250 pi_y2_a2_proc_0
      + 0.995117187500 pi_y2_a2_proc_2 + 0.049804687500 pi_y2_a3_proc_0
      + 0.949707031250 pi_y2_a3_proc_2 + 0.004394531250 pi_y2_a4_proc_0
      + 0.868164062500 pi_y2_a4_proc_1 + 0.126953125000 pi_y2_a4_proc_2
      + 0.999511718750 pi_y2_a5_proc_1 + 0.967285156250 pi_y2_a6_proc_0
      + 0.031250000000 pi_y2_a6_proc_1 + 0.000976562500 pi_y2_a6_proc_2
      + 0.002441406250 pi_y2_a7_proc_0 + 0.024414062500 pi_y2_a7_proc_1
      + 0.972656250000 pi_y2_a7_proc_2 + 0.070800781250 pi_y2_a8_proc_0
      + 0.928710937500 pi_y2_a8_proc_1 + 0.185546875000 pi_y2_a9_proc_1
      + 0.813964843750 pi_y2_a9_proc_2
Subject To
 c1: 0.001605136437 pi_nr_a0 + 0.001814882033 pi_nr_a1 + 0.000999000999 pi_nr_a2
     + 0.001652892562 pi_nr_a3 + 0.002840909091 pi_nr_a4
     + 0.001398601399 pi_nr_a5 + 0.001146788991 pi_nr_a6
     + 0.001342281879 pi_nr_a7 + 0.000969932105 pi_nr_a8
     + 0.000979431929 pi_nr_a9 + pi_p_a1_a3 + pi_p_a4_a4 + pi_p_a1_a6
     + pi_p_a0_a6 + pi_p_a4_a5 + pi_p_a0_a9 + 2561 pi_d_a0_a1_proc_2
     + 2561 pi_d_a0_a1_proc_1 + pi_d_a0_a1_proc_0 + 2560 pi_d_a1_a0_proc_2
     + 2560 pi_d_a1_a0_proc_1 + 1293 pi_d_a0_a2_proc_2 + 2573 pi_d_a0_a2_proc_1
     + 1293 pi_d_a0_a2_proc_0 + 1268 pi_d_a2_a0_proc_2 + 2548 pi_d_a2_a0_proc_1
     + 1268 pi_d_a2_a0_proc_0 + 1293 pi_d_a0_a3_proc_2 + 1293 pi_d_a0_a3_proc_0
     + 1268 pi_d_a3_a0_proc_2 + 1268 pi_d_a3_a0_proc_0 + 2573 pi_d_a0_a4_proc_2
     + 1293 pi_d_a0_a4_proc_1 + 1293 pi_d_a0_a4_proc_0 + 2548 pi_d_a4_a0_proc_2
     + 1268 pi_d_a4_a0_proc_1 + 1268 pi_d_a4_a0_proc_0 + 1293 pi_d_a0_a5_proc_1
     + 1268 pi_d_a5_a0_proc_1 + 2561 pi_d_a0_a6_proc_2 + 2561 pi_d_a0_a6_proc_1
     + pi_d_a0_a6_proc_0 + 2560 pi_d_a6_a0_proc_2 + 2560 pi_d_a6_a0_proc_1
     + 1268 pi_d_a0_a7_proc_2 + 2548 pi_d_a0_a7_proc_1 + 1268 pi_d_a0_a7_proc_0
     + 1293 pi_d_a7_a0_proc_2 + 2573 pi_d_a7_a0_proc_1 + 1293 pi_d_a7_a0_proc_0
     + 1293 pi_d_a0_a8_proc_1 + 1293 pi_d_a0_a8_proc_0 + 1268 pi_d_a8_a0_proc_1
     + 1268 pi_d_a8_a0_proc_0 + 1293 pi_d_a0_a9_proc_2 + 2573 pi_d_a0_a9_proc_1
     + 1268 pi_d_a9_a0_proc_2 + 2548 pi_d_a9_a0_proc_1 + 1293 pi_d_a1_a2_proc_2
     + 2573 pi_d_a1_a2_proc_1 + 1293 pi_d_a1_a2_proc_0 + 1268 pi_d_a2_a1_proc_2
     + 2548 pi_d_a2_a1_proc_1 + 1268 pi_d_a2_a1_proc_0 + 1293 pi_d_a1_a3_proc_2
     + 1293 pi_d_a1_a3_proc_0 + 1268 pi_d_a3_a1_proc_2 + 1268 pi_d_a3_a1_proc_0
     + 2573 pi_d_a1_a4_proc_2 + 1293 pi_d_a1_a4_proc_1 + 1293 pi_d_a1_a4_proc_0
     + 2548 pi_d_a4_a1_proc_2 + 1268 pi_d_a4_a1_proc_1 + 1268 pi_d_a4_a1_proc_0
     + 1293 pi_d_a1_a5_proc_1 + 1268 pi_d_a5_a1_proc_1 + 2561 pi_d_a1_a6_proc_2
     + 2561 pi_d_a1_a6_proc_1 + pi_d_a1_a6_proc_0 + 2560 pi_d_a6_a1_proc_2
     + 2560 pi_d_a6_a1_proc_1 + 1293 pi_d_a1_a7_proc_2 + 2573 pi_d_a1_a7_proc_1
     + 1293 pi_d_a1_a7_proc_0 + 1268 pi_d_a7_a1_proc_2 + 2548 pi_d_a7_a1_proc_1
     + 1268 pi_d_a7_a1_proc_0 + 1293 pi_d_a1_a8_proc_1 + 1293 pi_d_a1_a8_proc_0
     + 1268 pi_d_a8_a1_proc_1 + 1268 pi_d_a8_a1_proc_0 + 1293 pi_d_a1_a9_proc_2
     + 2573 pi_d_a1_a9_proc_1 + 1268 pi_d_a9_a1_proc_2 + 2548 pi_d_a9_a1_proc_1
     + pi_d_a2_a3_proc_2 + 2561 pi_d_a2_a3_proc_0 + 2560 pi_d_a3_a2_proc_0
     + 1293 pi_d_a2_a4_proc_2 + 1293 pi_d_a2_a4_proc_1 + 2573 pi_d_a2_a4_proc_0
     + 1268 pi_d_a4_a2_proc_2 + 1268 pi_d_a4_a2_proc_1 + 2548 pi_d_a4_a2_proc_0
     + 1293 pi_d_a2_a5_proc_1 + 1268 pi_d_a5_a2_proc_1 + 1293 pi_d_a2_a6_proc_2
     + 2573 pi_d_a2_a6_proc_1 + 1293 pi_d_a2_a6_proc_0 + 1268 pi_d_a6_a2_proc_2
     + 2548 pi_d_a6_a2_proc_1 + 1268 pi_d_a6_a2_proc_0 + pi_d_a2_a7_proc_2
     + 2561 pi_d_a2_a7_proc_1 + 2561 pi_d_a2_a7_proc_0 + 2560 pi_d_a7_a2_proc_1
     + 2560 pi_d_a7_a2_proc_0 + 1293 pi_d_a2_a8_proc_1 + 2573 pi_d_a2_a8_proc_0
     + 1268 pi_d_a8_a2_proc_1 + 2548 pi_d_a8_a2_proc_0 + pi_d_a2_a9_proc_2
     + 2561 pi_d_a2_a9_proc_1 + 2560 pi_d_a9_a2_proc_1 + 1293 pi_d_a3_a4_proc_2
     + 2573 pi_d_a3_a4_proc_0 + 1268 pi_d_a4_a3_proc_2 + 2548 pi_d_a4_a3_proc_0
     + 1293 pi_d_a3_a6_proc_2 + 1293 pi_d_a3_a6_proc_0 + 1268 pi_d_a6_a3_proc_2
     + 1268 pi_d_a6_a3_proc_0 + 2560 pi_d_a3_a7_proc_0 + pi_d_a7_a3_proc_2
     + 2561 pi_d_a7_a3_proc_0 + 2573 pi_d_a3_a8_proc_0 + 2548 pi_d_a8_a3_proc_0
     + pi_d_a9_a3_proc_2 + pi_d_a4_a5_proc_1 + 2573 pi_d_a4_a6_proc_2
     + 1293 pi_d_a4_a6_proc_1 + 1293 pi_d_a4_a6_proc_0 + 2548 pi_d_a6_a4_proc_2
     + 1268 pi_d_a6_a4_proc_1 + 1268 pi_d_a6_a4_proc_0 + 1268 pi_d_a4_a7_proc_2
     + 1268 pi_d_a4_a7_proc_1 + 2548 pi_d_a4_a7_proc_0 + 1293 pi_d_a7_a4_proc_2
     + 1293 pi_d_a7_a4_proc_1 + 2573 pi_d_a7_a4_proc_0 + pi_d_a4_a8_proc_1
     + 2561 pi_d_a4_a8_proc_0 + 2560 pi_d_a8_a4_proc_0 + 1293 pi_d_a4_a9_proc_2
     + 1293 pi_d_a4_a9_proc_1 + 1268 pi_d_a9_a4_proc_2 + 1268 pi_d_a9_a4_proc_1
     + 1293 pi_d_a5_a6_proc_1 + 1268 pi_d_a6_a5_proc_1 + 1293 pi_d_a5_a7_proc_1
     + 1268 pi_d_a7_a5_proc_1 + pi_d_a8_a5_proc_1 + 1293 pi_d_a5_a9_proc_1
     + 1268 pi_d_a9_a5_proc_1 + 1293 pi_d_a6_a7_proc_2 + 2573 pi_d_a6_a7_proc_1
     + 1293 pi_d_a6_a7_proc_0 + 1268 pi_d_a7_a6_proc_2 + 2548 pi_d_a7_a6_proc_1
     + 1268 pi_d_a7_a6_proc_0 + 1268 pi_d_a6_a8_proc_1 + 1268 pi_d_a6_a8_proc_0
     + 1293 pi_d_a8_a6_proc_1 + 1293 pi_d_a8_a6_proc_0 + 1268 pi_d_a6_a9_proc_2
     + 2548 pi_d_a6_a9_proc_1 + 1293 pi_d_a9_a6_proc_2 + 2573 pi_d_a9_a6_proc_1
     + 1293 pi_d_a7_a8_proc_1 + 2573 pi_d_a7_a8_proc_0 + 1268 pi_d_a8_a7_proc_1
     + 2548 pi_d_a8_a7_proc_0 + 2560 pi_d_a7_a9_proc_1 + pi_d_a9_a7_proc_2
     + 2561 pi_d_a9_a7_proc_1 + 1293 pi_d_a8_a9_proc_1 + 1268 pi_d_a9_a8_proc_1
     + pi_y2_a0_proc_0 + pi_y2_a1_proc_0 + pi_y2_a2_proc_2 + pi_y2_a3_proc_2
     + pi_y2_a4_proc_1 + pi_y2_a5_proc_1 + pi_y2_a6_proc_0 + pi_y2_a7_proc_2
     + pi_y2_a8_proc_1 + pi_y2_a9_proc_2 = 0.000254906959
 c2: pi_nr_a0 + pi_nr_a1 + pi_nr_a2 + pi_nr_a3 + pi_nr_a4 + pi_nr_a5 + pi_nr_a6
     + pi_nr_a7 + pi_nr_a8 + pi_nr_a9 - pi_y1_a0 - pi_y1_a1 - pi_y1_a2
     - pi_y1_a3 - pi_y1_a4 - pi_y1_a5 - pi_y1_a6 - pi_y1_a7 - pi_y1_a8
     - pi_y1_a9 >= 1
 c3: - pi_p_a1_a0 + pi_p_a0_a5 + pi_p_a0_a6 + pi_p_a0_a9 + pi_d_a0_a1_proc_2
     + pi_d_a0_a1_proc_1 + pi_d_a0_a1_proc_0 - pi_d_a1_a0_proc_2
     - pi_d_a1_a0_proc_1 - pi_d_a1_a0_proc_0 + pi_d_a0_a2_proc_2
     + pi_d_a0_a2_proc_1 + pi_d_a0_a2_proc_0 - pi_d_a2_a0_proc_2
     - pi_d_a2_a0_proc_1 - pi_d_a2_a0_proc_0 + pi_d_a0_a3_proc_2
     + pi_d_a0_a3_proc_0 - pi_d_a3_a0_proc_2 - pi_d_a3_a0_proc_0
     + pi_d_a0_a4_proc_2 + pi_d_a0_a4_proc_1 + pi_d_a0_a4_proc_0
     - pi_d_a4_a0_proc_2 - pi_d_a4_a0_proc_1 - pi_d_a4_a0_proc_0
     + pi_d_a0_a5_proc_1 - pi_d_a5_a0_proc_1 + pi_d_a0_a6_proc_2
     + pi_d_a0_a6_proc_1 + pi_d_a0_a6_proc_0 - pi_d_a6_a0_proc_2
     - pi_d_a6_a0_proc_1 - pi_d_a6_a0_proc_0 + pi_d_a0_a7_proc_2
     + pi_d_a0_a7_proc_1 + pi_d_a0_a7_proc_0 - pi_d_a7_a0_proc_2
     - pi_d_a7_a0_proc_1 - pi_d_a7_a0_proc_0 + pi_d_a0_a8_proc_1
     + pi_d_a0_a8_proc_0 - pi_d_a8_a0_proc_1 - pi_d_a8_a0_proc_0
     + pi_d_a0_a9_proc_2 + pi_d_a0_a9_proc_1 - pi_d_a9_a0_proc_2
     - pi_d_a9_a0_proc_1 >= 0
 c4: 623 pi_p_a0_a5 + 623 pi_p_a0_a6 + 623 pi_p_a0_a9 + 623 pi_d_a0_a1_proc_0
     + 623 pi_d_a0_a2_proc_0 + 623 pi_d_a0_a3_proc_0 + 623 pi_d_a0_a4_proc_0
     + 623 pi_d_a0_a6_proc_0 + 623 pi_d_a0_a7_proc_0 + 623 pi_d_a0_a8_proc_0
     + pi_y1_a0 + pi_y2_a0_proc_0 >= 0
 c5: 831 pi_p_a0_a5 + 831 pi_p_a0_a6 + 831 pi_p_a0_a9 + 831 pi_d_a0_a1_proc_1
     + 831 pi_d_a0_a2_proc_1 + 831 pi_d_a0_a4_proc_1 + 831 pi_d_a0_a5_proc_1
     + 831 pi_d_a0_a6_proc_1 + 831 pi_d_a0_a7_proc_1 + 831 pi_d_a0_a8_proc_1
     + 831 pi_d_a0_a9_proc_1 + pi_y1_a0 + pi_y2_a0_proc_1 >= 0
 c6: 1188 pi_p_a0_a5 + 1188 pi_p_a0_a6 + 1188 pi_p_a0_a9
     + 1188 pi_d_a0_a1_proc_2 + 1188 pi_d_a0_a2_proc_2 + 1188 pi_d_a0_a3_proc_2
     + 1188 pi_d_a0_a4_proc_2 + 1188 pi_d_a0_a6_proc_2 + 1188 pi_d_a0_a7_proc_2
     + 1188 pi_d_a0_a9_proc_2 + pi_y1_a0 + pi_y2_a0_proc_2 >= 0
 c7: pi_p_a1_a0 - pi_p_a2_a1 + pi_p_a1_a3 + pi_p_a1_a6 - pi_d_a0_a1_proc_2
     - pi_d_a0_a1_proc_1 - pi_d_a0_a1_proc_0 + pi_d_a1_a0_proc_2
     + pi_d_a1_a0_proc_1 + pi_d_a1_a0_proc_0 + pi_d_a1_a2_proc_2
     + pi_d_a1_a2_proc_1 + pi_d_a1_a2_proc_0 - pi_d_a2_a1_proc_2
     - pi_d_a2_a1_proc_1 - pi_d_a2_a1_proc_0 + pi_d_a1_a3_proc_2
     + pi_d_a1_a3_proc_0 - pi_d_a3_a1_proc_2 - pi_d_a3_a1_proc_0
     + pi_d_a1_a4_proc_2 + pi_d_a1_a4_proc_1 + pi_d_a1_a4_proc_0
     - pi_d_a4_a1_proc_2 - pi_d_a4_a1_proc_1 - pi_d_a4_a1_proc_0
     + pi_d_a1_a5_proc_1 - pi_d_a5_a1_proc_1 + pi_d_a1_a6_proc_2
     + pi_d_a1_a6_proc_1 + pi_d_a1_a6_proc_0 - pi_d_a6_a1_proc_2
     - pi_d_a6_a1_proc_1 - pi_d_a6_a1_proc_0 + pi_d_a1_a7_proc_2
     + pi_d_a1_a7_proc_1 + pi_d_a1_a7_proc_0 - pi_d_a7_a1_proc_2
     - pi_d_a7_a1_proc_1 - pi_d_a7_a1_proc_0 + pi_d_a1_a8_proc_1
     + pi_d_a1_a8_proc_0 - pi_d_a8_a1_proc_1 - pi_d_a8_a1_proc_0
     + pi_d_a1_a9_proc_2 + pi_d_a1_a9_proc_1 - pi_d_a9_a1_proc_2
     - pi_d_a9_a1_proc_1 >= 0
 c8: 551 pi_p_a1_a0 + 551 pi_p_a1_a3 + 551 pi_p_a1_a6 + 551 pi_d_a1_a0_proc_0
     + 551 pi_d_a1_a2_proc_0 + 551 pi_d_a1_a3_proc_0 + 551 pi_d_a1_a4_proc_0
     + 551 pi_d_a1_a6_proc_0 + 551 pi_d_a1_a7_proc_0 + 551 pi_d_a1_a8_proc_0
     + pi_y1_a1 + pi_y2_a1_proc_0 >= 0
 c9: 1071 pi_p_a1_a0 + 1071 pi_p_a1_a3 + 1071 pi_p_a1_a6
     + 1071 pi_d_a1_a0_proc_1 + 1071 pi_d_a1_a2_proc_1 + 1071 pi_d_a1_a4_proc_1
     + 1071 pi_d_a1_a5_proc_1 + 1071 pi_d_a1_a6_proc_1 + 1071 pi_d_a1_a7_proc_1
     + 1071 pi_d_a1_a8_proc_1 + 1071 pi_d_a1_a9_proc_1 + pi_y1_a1
     + pi_y2_a1_proc_1 >= 0
 c10: 674 pi_p_a1_a0 + 674 pi_p_a1_a3 + 674 pi_p_a1_a6 + 674 pi_d_a1_a0_proc_2
      + 674 pi_d_a1_a2_proc_2 + 674 pi_d_a1_a3_proc_2 + 674 pi_d_a1_a4_proc_2
      + 674 pi_d_a1_a6_proc_2 + 674 pi_d_a1_a7_proc_2 + 674 pi_d_a1_a9_proc_2
      + pi_y1_a1 + pi_y2_a1_proc_2 >= 0
 c11: pi_p_a2_a1 - pi_p_a6_a2 - pi_p_a9_a2 - pi_d_a0_a2_proc_2
      - pi_d_a0_a2_proc_1 - pi_d_a0_a2_proc_0 + pi_d_a2_a0_proc_2
      + pi_d_a2_a0_proc_1 + pi_d_a2_a0_proc_0 - pi_d_a1_a2_proc_2
      - pi_d_a1_a2_proc_1 - pi_d_a1_a2_proc_0 + pi_d_a2_a1_proc_2
      + pi_d_a2_a1_proc_1 + pi_d_a2_a1_proc_0 + pi_d_a2_a3_proc_2
      + pi_d_a2_a3_proc_0 - pi_d_a3_a2_proc_2 - pi_d_a3_a2_proc_0
      + pi_d_a2_a4_proc_2 + pi_d_a2_a4_proc_1 + pi_d_a2_a4_proc_0
      - pi_d_a4_a2_proc_2 - pi_d_a4_a2_proc_1 - pi_d_a4_a2_proc_0
      + pi_d_a2_a5_proc_1 - pi_d_a5_a2_proc_1 + pi_d_a2_a6_proc_2
      + pi_d_a2_a6_proc_1 + pi_d_a2_a6_proc_0 - pi_d_a6_a2_proc_2
      - pi_d_a6_a2_proc_1 - pi_d_a6_a2_proc_0 + pi_d_a2_a7_proc_2
      + pi_d_a2_a7_proc_1 + pi_d_a2_a7_proc_0 - pi_d_a7_a2_proc_2
      - pi_d_a7_a2_proc_1 - pi_d_a7_a2_proc_0 + pi_d_a2_a8_proc_1
      + pi_d_a2_a8_proc_0 - pi_d_a8_a2_proc_1 - pi_d_a8_a2_proc_0
      + pi_d_a2_a9_proc_2 + pi_d_a2_a9_proc_1 - pi_d_a9_a2_proc_2
      - pi_d_a9_a2_proc_1 >= 0
 c12: 1014 pi_p_a2_a1 + 1014 pi_d_a2_a0_proc_0 + 1014 pi_d_a2_a1_proc_0
      + 1014 pi_d_a2_a3_proc_0 + 1014 pi_d_a2_a4_proc_0 + 1014 pi_d_a2_a6_proc_0
      + 1014 pi_d_a2_a7_proc_0 + 1014 pi_d_a2_a8_proc_0 + pi_y1_a2
      + pi_y2_a2_proc_0 >= 0
 c13: 1219 pi_p_a2_a1 + 1219 pi_d_a2_a0_proc_1 + 1219 pi_d_a2_a1_proc_1
      + 1219 pi_d_a2_a4_proc_1 + 1219 pi_d_a2_a5_proc_1 + 1219 pi_d_a2_a6_proc_1
      + 1219 pi_d_a2_a7_proc_1 + 1219 pi_d_a2_a8_proc_1 + 1219 pi_d_a2_a9_proc_1
      + pi_y1_a2 + pi_y2_a2_proc_1 >= 0
 c14: 1001 pi_p_a2_a1 + 1001 pi_d_a2_a0_proc_2 + 1001 pi_d_a2_a1_proc_2
      + 1001 pi_d_a2_a3_proc_2 + 1001 pi_d_a2_a4_proc_2 + 1001 pi_d_a2_a6_proc_2
      + 1001 pi_d_a2_a7_proc_2 + 1001 pi_d_a2_a9_proc_2 + pi_y1_a2
      + pi_y2_a2_proc_2 >= 0
 c15: - pi_p_a1_a3 + pi_p_a3_a4 + pi_p_a3_a7 + pi_p_a3_a9 - pi_d_a0_a3_proc_2
      - pi_d_a0_a3_proc_0 + pi_d_a3_a0_proc_2 + pi_d_a3_a0_proc_0
      - pi_d_a1_a3_proc_2 - pi_d_a1_a3_proc_0 + pi_d_a3_a1_proc_2
      + pi_d_a3_a1_proc_0 - pi_d_a2_a3_proc_2 - pi_d_a2_a3_proc_0
      + pi_d_a3_a2_proc_2 + pi_d_a3_a2_proc_0 + pi_d_a3_a4_proc_2
      + pi_d_a3_a4_proc_0 - pi_d_a4_a3_proc_2 - pi_d_a4_a3_proc_0
      + pi_d_a3_a6_proc_2 + pi_d_a3_a6_proc_0 - pi_d_a6_a3_proc_2
      - pi_d_a6_a3_proc_0 + pi_d_a3_a7_proc_2 + pi_d_a3_a7_proc_0
      - pi_d_a7_a3_proc_2 - pi_d_a7_a3_proc_0 + pi_d_a3_a8_proc_0
      - pi_d_a8_a3_proc_0 + pi_d_a3_a9_proc_2 - pi_d_a9_a3_proc_2 >= 0
 c16: 728 pi_p_a3_a4 + 728 pi_p_a3_a7 + 728 pi_p_a3_a9 + 728 pi_d_a3_a0_proc_0
      + 728 pi_d_a3_a1_proc_0 + 728 pi_d_a3_a2_proc_0 + 728 pi_d_a3_a4_proc_0
      + 728 pi_d_a3_a6_proc_0 + 728 pi_d_a3_a7_proc_0 + 728 pi_d_a3_a8_proc_0
      + pi_y1_a3 + pi_y2_a3_proc_0 >= 0
 c17: 605 pi_p_a3_a4 + 605 pi_p_a3_a7 + 605 pi_p_a3_a9 + 605 pi_d_a3_a0_proc_2
      + 605 pi_d_a3_a1_proc_2 + 605 pi_d_a3_a2_proc_2 + 605 pi_d_a3_a4_proc_2
      + 605 pi_d_a3_a6_proc_2 + 605 pi_d_a3_a7_proc_2 + 605 pi_d_a3_a9_proc_2
      + pi_y1_a3 + pi_y2_a3_proc_2 >= 0
 c18: - pi_p_a3_a4 - pi_p_a8_a4 + pi_p_a4_a5 - pi_d_a0_a4_proc_2
      - pi_d_a0_a4_proc_1 - pi_d_a0_a4_proc_0 + pi_d_a4_a0_proc_2
      + pi_d_a4_a0_proc_1 + pi_d_a4_a0_proc_0 - pi_d_a1_a4_proc_2
      - pi_d_a1_a4_proc_1 - pi_d_a1_a4_proc_0 + pi_d_a4_a1_proc_2
      + pi_d_a4_a1_proc_1 + pi_d_a4_a1_proc_0 - pi_d_a2_a4_proc_2
      - pi_d_a2_a4_proc_1 - pi_d_a2_a4_proc_0 + pi_d_a4_a2_proc_2
      + pi_d_a4_a2_proc_1 + pi_d_a4_a2_proc_0 - pi_d_a3_a4_proc_2
      - pi_d_a3_a4_proc_0 + pi_d_a4_a3_proc_2 + pi_d_a4_a3_proc_0
      + pi_d_a4_a5_proc_1 - pi_d_a5_a4_proc_1 + pi_d_a4_a6_proc_2
      + pi_d_a4_a6_proc_1 + pi_d_a4_a6_proc_0 - pi_d_a6_a4_proc_2
      - pi_d_a6_a4_proc_1 - pi_d_a6_a4_proc_0 + pi_d_a4_a7_proc_2
      + pi_d_a4_a7_proc_1 + pi_d_a4_a7_proc_0 - pi_d_a7_a4_proc_2
      - pi_d_a7_a4_proc_1 - pi_d_a7_a4_proc_0 + pi_d_a4_a8_proc_1
      + pi_d_a4_a8_proc_0 - pi_d_a8_a4_proc_1 - pi_d_a8_a4_proc_0
      + pi_d_a4_a9_proc_2 + pi_d_a4_a9_proc_1 - pi_d_a9_a4_proc_2
      - pi_d_a9_a4_proc_1 >= 0
 c19: 1134 pi_p_a4_a4 + 1134 pi_p_a4_a5 + 1134 pi_d_a4_a0_proc_0
      + 1134 pi_d_a4_a1_proc_0 + 1134 pi_d_a4_a2_proc_0 + 1134 pi_d_a4_a3_proc_0
      + 1134 pi_d_a4_a6_proc_0 + 1134 pi_d_a4_a7_proc_0 + 1134 pi_d_a4_a8_proc_0
      + pi_y1_a4 + pi_y2_a4_proc_0 >= 0
 c20: 352 pi_p_a4_a4 + 352 pi_p_a4_a5 + 352 pi_d_a4_a0_proc_1
      + 352 pi_d_a4_a1_proc_1 + 352 pi_d_a4_a2_proc_1 + 352 pi_d_a4_a5_proc_1
      + 352 pi_d_a4_a6_proc_1 + 352 pi_d_a4_a7_proc_1 + 352 pi_d_a4_a8_proc_1
      + 352 pi_d_a4_a9_proc_1 + pi_y1_a4 + pi_y2_a4_proc_1 >= 0
 c21: 1233 pi_p_a4_a4 + 1233 pi_p_a4_a5 + 1233 pi_d_a4_a0_proc_2
      + 1233 pi_d_a4_a1_proc_2 + 1233 pi_d_a4_a2_proc_2 + 1233 pi_d_a4_a3_proc_2
      + 1233 pi_d_a4_a6_proc_2 + 1233 pi_d_a4_a7_proc_2 + 1233 pi_d_a4_a9_proc_2
      + pi_y1_a4 + pi_y2_a4_proc_2 >= 0
 c22: - pi_p_a0_a5 + pi_p_a5_a8 - pi_p_a4_a5 - pi_d_a0_a5_proc_1
      + pi_d_a5_a0_proc_1 - pi_d_a1_a5_proc_1 + pi_d_a5_a1_proc_1
      - pi_d_a2_a5_proc_1 + pi_d_a5_a2_proc_1 - pi_d_a4_a5_proc_1
      + pi_d_a5_a4_proc_1 + pi_d_a5_a6_proc_1 - pi_d_a6_a5_proc_1
      + pi_d_a5_a7_proc_1 - pi_d_a7_a5_proc_1 + pi_d_a5_a8_proc_1
      - pi_d_a8_a5_proc_1 + pi_d_a5_a9_proc_1 - pi_d_a9_a5_proc_1 >= 0
 c23: 715 pi_p_a5_a8 + 715 pi_d_a5_a0_proc_1 + 715 pi_d_a5_a1_proc_1
      + 715 pi_d_a5_a2_proc_1 + 715 pi_d_a5_a4_proc_1 + 715 pi_d_a5_a6_proc_1
      + 715 pi_d_a5_a7_proc_1 + 715 pi_d_a5_a8_proc_1 + 715 pi_d_a5_a9_proc_1
      + pi_y1_a5 + pi_y2_a5_proc_1 >= 0
 c24: pi_p_a6_a2 - pi_p_a1_a6 - pi_p_a0_a6 - pi_d_a0_a6_proc_2
      - pi_d_a0_a6_proc_1 - pi_d_a0_a6_proc_0 + pi_d_a6_a0_proc_2
      + pi_d_a6_a0_proc_1 + pi_d_a6_a0_proc_0 - pi_d_a1_a6_proc_2
      - pi_d_a1_a6_proc_1 - pi_d_a1_a6_proc_0 + pi_d_a6_a1_proc_2
      + pi_d_a6_a1_proc_1 + pi_d_a6_a1_proc_0 - pi_d_a2_a6_proc_2
      - pi_d_a2_a6_proc_1 - pi_d_a2_a6_proc_0 + pi_d_a6_a2_proc_2
      + pi_d_a6_a2_proc_1 + pi_d_a6_a2_proc_0 - pi_d_a3_a6_proc_2
      - pi_d_a3_a6_proc_0 + pi_d_a6_a3_proc_2 + pi_d_a6_a3_proc_0
      - pi_d_a4_a6_proc_2 - pi_d_a4_a6_proc_1 - pi_d_a4_a6_proc_0
      + pi_d_a6_a4_proc_2 + pi_d_a6_a4_proc_1 + pi_d_a6_a4_proc_0
      - pi_d_a5_a6_proc_1 + pi_d_a6_a5_proc_1 + pi_d_a6_a7_proc_2
      + pi_d_a6_a7_proc_1 + pi_d_a6_a7_proc_0 - pi_d_a7_a6_proc_2
      - pi_d_a7_a6_proc_1 - pi_d_a7_a6_proc_0 + pi_d_a6_a8_proc_1
      + pi_d_a6_a8_proc_0 - pi_d_a8_a6_proc_1 - pi_d_a8_a6_proc_0
      + pi_d_a6_a9_proc_2 + pi_d_a6_a9_proc_1 - pi_d_a9_a6_proc_2
      - pi_d_a9_a6_proc_1 >= 0
 c25: 872 pi_p_a6_a2 + 872 pi_d_a6_a0_proc_0 + 872 pi_d_a6_a1_proc_0
      + 872 pi_d_a6_a2_proc_0 + 872 pi_d_a6_a3_proc_0 + 872 pi_d_a6_a4_proc_0
      + 872 pi_d_a6_a7_proc_0 + 872 pi_d_a6_a8_proc_0 + pi_y1_a6
      + pi_y2_a6_proc_0 >= 0
 c26: 934 pi_p_a6_a2 + 934 pi_d_a6_a0_proc_1 + 934 pi_d_a6_a1_proc_1
      + 934 pi_d_a6_a2_proc_1 + 934 pi_d_a6_a4_proc_1 + 934 pi_d_a6_a5_proc_1
      + 934 pi_d_a6_a7_proc_1 + 934 pi_d_a6_a8_proc_1 + 934 pi_d_a6_a9_proc_1
      + pi_y1_a6 + pi_y2_a6_proc_1 >= 0
 c27: 1188 pi_p_a6_a2 + 1188 pi_d_a6_a0_proc_2 + 1188 pi_d_a6_a1_proc_2
      + 1188 pi_d_a6_a2_proc_2 + 1188 pi_d_a6_a3_proc_2 + 1188 pi_d_a6_a4_proc_2
      + 1188 pi_d_a6_a7_proc_2 + 1188 pi_d_a6_a9_proc_2 + pi_y1_a6
      + pi_y2_a6_proc_2 >= 0
 c28: - pi_p_a3_a7 + pi_p_a7_a9 - pi_d_a0_a7_proc_2 - pi_d_a0_a7_proc_1
      - pi_d_a0_a7_proc_0 + pi_d_a7_a0_proc_2 + pi_d_a7_a0_proc_1
      + pi_d_a7_a0_proc_0 - pi_d_a1_a7_proc_2 - pi_d_a1_a7_proc_1
      - pi_d_a1_a7_proc_0 + pi_d_a7_a1_proc_2 + pi_d_a7_a1_proc_1
      + pi_d_a7_a1_proc_0 - pi_d_a2_a7_proc_2 - pi_d_a2_a7_proc_1
      - pi_d_a2_a7_proc_0 + pi_d_a7_a2_proc_2 + pi_d_a7_a2_proc_1
      + pi_d_a7_a2_proc_0 - pi_d_a3_a7_proc_2 - pi_d_a3_a7_proc_0
      + pi_d_a7_a3_proc_2 + pi_d_a7_a3_proc_0 - pi_d_a4_a7_proc_2
      - pi_d_a4_a7_proc_1 - pi_d_a4_a7_proc_0 + pi_d_a7_a4_proc_2
      + pi_d_a7_a4_proc_1 + pi_d_a7_a4_proc_0 - pi_d_a5_a7_proc_1
      + pi_d_a7_a5_proc_1 - pi_d_a6_a7_proc_2 - pi_d_a6_a7_proc_1
      - pi_d_a6_a7_proc_0 + pi_d_a7_a6_proc_2 + pi_d_a7_a6_proc_1
      + pi_d_a7_a6_proc_0 + pi_d_a7_a8_proc_1 + pi_d_a7_a8_proc_0
      - pi_d_a8_a7_proc_1 - pi_d_a8_a7_proc_0 + pi_d_a7_a9_proc_2
      + pi_d_a7_a9_proc_1 - pi_d_a9_a7_proc_2 - pi_d_a9_a7_proc_1 >= 0
 c29: 1026 pi_p_a7_a9 + 1026 pi_d_a7_a0_proc_0 + 1026 pi_d_a7_a1_proc_0
      + 1026 pi_d_a7_a2_proc_0 + 1026 pi_d_a7_a3_proc_0 + 1026 pi_d_a7_a4_proc_0
      + 1026 pi_d_a7_a6_proc_0 + 1026 pi_d_a7_a8_proc_0 + pi_y1_a7
      + pi_y2_a7_proc_0 >= 0
 c30: 794 pi_p_a7_a9 + 794 pi_d_a7_a0_proc_1 + 794 pi_d_a7_a1_proc_1
      + 794 pi_d_a7_a2_proc_1 + 794 pi_d_a7_a4_proc_1 + 794 pi_d_a7_a5_proc_1
      + 794 pi_d_a7_a6_proc_1 + 794 pi_d_a7_a8_proc_1 + 794 pi_d_a7_a9_proc_1
      + pi_y1_a7 + pi_y2_a7_proc_1 >= 0
 c31: 745 pi_p_a7_a9 + 745 pi_d_a7_a0_proc_2 + 745 pi_d_a7_a1_proc_2
      + 745 pi_d_a7_a2_proc_2 + 745 pi_d_a7_a3_proc_2 + 745 pi_d_a7_a4_proc_2
      + 745 pi_d_a7_a6_proc_2 + 745 pi_d_a7_a9_proc_2 + pi_y1_a7
      + pi_y2_a7_proc_2 >= 0
 c32: - pi_p_a5_a8 + pi_p_a8_a4 - pi_d_a0_a8_proc_1 - pi_d_a0_a8_proc_0
      + pi_d_a8_a0_proc_1 + pi_d_a8_a0_proc_0 - pi_d_a1_a8_proc_1
      - pi_d_a1_a8_proc_0 + pi_d_a8_a1_proc_1 + pi_d_a8_a1_proc_0
      - pi_d_a2_a8_proc_1 - pi_d_a2_a8_proc_0 + pi_d_a8_a2_proc_1
      + pi_d_a8_a2_proc_0 - pi_d_a3_a8_proc_0 + pi_d_a8_a3_proc_0
      - pi_d_a4_a8_proc_1 - pi_d_a4_a8_proc_0 + pi_d_a8_a4_proc_1
      + pi_d_a8_a4_proc_0 - pi_d_a5_a8_proc_1 + pi_d_a8_a5_proc_1
      - pi_d_a6_a8_proc_1 - pi_d_a6_a8_proc_0 + pi_d_a8_a6_proc_1
      + pi_d_a8_a6_proc_0 - pi_d_a7_a8_proc_1 - pi_d_a7_a8_proc_0
      + pi_d_a8_a7_proc_1 + pi_d_a8_a7_proc_0 + pi_d_a8_a9_proc_1
      - pi_d_a9_a8_proc_1 >= 0
 c33: 1280 pi_p_a8_a4 + 1280 pi_d_a8_a0_proc_0 + 1280 pi_d_a8_a1_proc_0
      + 1280 pi_d_a8_a2_proc_0 + 1280 pi_d_a8_a3_proc_0 + 1280 pi_d_a8_a4_proc_0
      + 1280 pi_d_a8_a6_proc_0 + 1280 pi_d_a8_a7_proc_0 + pi_y1_a8
      + pi_y2_a8_proc_0 >= 0
 c34: 1031 pi_p_a8_a4 + 1031 pi_d_a8_a0_proc_1 + 1031 pi_d_a8_a1_proc_1
      + 1031 pi_d_a8_a2_proc_1 + 1031 pi_d_a8_a4_proc_1 + 1031 pi_d_a8_a5_proc_1
      + 1031 pi_d_a8_a6_proc_1 + 1031 pi_d_a8_a7_proc_1 + 1031 pi_d_a8_a9_proc_1
      + pi_y1_a8 + pi_y2_a8_proc_1 >= 0
 c35: pi_p_a9_a2 - pi_p_a7_a9 - pi_p_a3_a9 - pi_p_a0_a9 - pi_d_a0_a9_proc_2
      - pi_d_a0_a9_proc_1 + pi_d_a9_a0_proc_2 + pi_d_a9_a0_proc_1
      - pi_d_a1_a9_proc_2 - pi_d_a1_a9_proc_1 + pi_d_a9_a1_proc_2
      + pi_d_a9_a1_proc_1 - pi_d_a2_a9_proc_2 - pi_d_a2_a9_proc_1
      + pi_d_a9_a2_proc_2 + pi_d_a9_a2_proc_1 - pi_d_a3_a9_proc_2
      + pi_d_a9_a3_proc_2 - pi_d_a4_a9_proc_2 - pi_d_a4_a9_proc_1
      + pi_d_a9_a4_proc_2 + pi_d_a9_a4_proc_1 - pi_d_a5_a9_proc_1
      + pi_d_a9_a5_proc_1 - pi_d_a6_a9_proc_2 - pi_d_a6_a9_proc_1
      + pi_d_a9_a6_proc_2 + pi_d_a9_a6_proc_1 - pi_d_a7_a9_proc_2
      - pi_d_a7_a9_proc_1 + pi_d_a9_a7_proc_2 + pi_d_a9_a7_proc_1
      - pi_d_a8_a9_proc_1 + pi_d_a9_a8_proc_1 >= 0
 c36: 1055 pi_p_a9_a2 + 1055 pi_d_a9_a0_proc_1 + 1055 pi_d_a9_a1_proc_1
      + 1055 pi_d_a9_a2_proc_1 + 1055 pi_d_a9_a4_proc_1 + 1055 pi_d_a9_a5_proc_1
      + 1055 pi_d_a9_a6_proc_1 + 1055 pi_d_a9_a7_proc_1 + 1055 pi_d_a9_a8_proc_1
      + pi_y1_a9 + pi_y2_a9_proc_1 >= 0
 c37: 1021 pi_p_a9_a2 + 1021 pi_d_a9_a0_proc_2 + 1021 pi_d_a9_a1_proc_2
      + 1021 pi_d_a9_a2_proc_2 + 1021 pi_d_a9_a3_proc_2 + 1021 pi_d_a9_a4_proc_2
      + 1021 pi_d_a9_a6_proc_2 + 1021 pi_d_a9_a7_proc_2 + pi_y1_a9
      + pi_y2_a9_proc_2 >= 0

Bounds
       pi_y1_a0 Free
       pi_y1_a1 Free
       pi_y1_a2 Free
       pi_y1_a3 Free
       pi_y1_a4 Free
       pi_y1_a5 Free
       pi_y1_a6 Free
       pi_y1_a7 Free
       pi_y1_a8 Free
       pi_y1_a9 Free
End
