benchmark/results/graph__10-1000-0.10-03_1/graph__10-1000-0.10-03_1_QuintonOs_Benders_aux.txt
solution for: Quinton Bounded Benders_auxiliary_sub
objective: 0.000254907
status: OPTIMAL_SOLUTION(2)
pi_p_a2_a1=0.000
pi_p_a1_a3=0.000
pi_p_a3_a7=0.000
pi_p_a9_a2=0.000
pi_p_a7_a9=0.000
pi_y1_a1=-0.140
pi_y1_a2=-0.255
pi_y1_a3=-0.154
pi_y1_a7=-0.190
pi_y1_a9=-0.260
